Version identifier: 12.10.0.0 | 2019-11-26 | 843d4de
CPXPARAM_WorkMem                                 28672
Tried aggregator 2 times.
Aggregator did 30 substitutions.
Reduced MIP has 139 rows, 180 columns, and 620 nonzeros.
Reduced MIP has 180 binaries, 0 generals, 0 SOSs, and 0 indicators.
Presolve time = 0,00 sec. (0,58 ticks)
Found incumbent of value 2052,000000 after 0,00 sec. (1,21 ticks)
Probing time = 0,00 sec. (0,19 ticks)
Tried aggregator 1 time.
Detecting symmetries...
MIP Presolve eliminated 44 rows and 0 columns.
MIP Presolve added 88 rows and 0 columns.
Reduced MIP has 183 rows, 180 columns, and 664 nonzeros.
Reduced MIP has 180 binaries, 0 generals, 0 SOSs, and 0 indicators.
Presolve time = 0,00 sec. (0,74 ticks)
Probing time = 0,00 sec. (0,18 ticks)
Clique table members: 395.
MIP emphasis: balance optimality and feasibility.
MIP search method: dynamic search.
Parallel mode: deterministic, using up to 16 threads.
Root relaxation solution time = 0,00 sec. (0,85 ticks)

        Nodes                                         Cuts/
   Node  Left     Objective  IInf  Best Integer    Best Bound    ItCnt     Gap

*     0+    0                         2052,0000        0,0000           100,00%
*     0+    0                         1193,0000        0,0000           100,00%
      0     0      513,0000   151     1193,0000      513,0000      102   57,00%
      0     0      531,6610   151     1193,0000      Cuts: 77      196   55,43%
      0     0      560,6859   151     1193,0000     Cuts: 145      284   53,00%
      0     0      576,0371   151     1193,0000     Cuts: 112      356   51,72%
      0     0      576,9584   151     1193,0000       Cuts: 6      377   51,64%
      0     0      577,9340   151     1193,0000      Cuts: 23      414   51,56%
      0     0      579,3514   151     1193,0000      Cuts: 53      440   51,44%
      0     0      579,6136   151     1193,0000   ZeroHalf: 2      457   51,42%
      0     0      580,3507   151     1193,0000   ZeroHalf: 7      480   51,35%
      0     0      581,0735   151     1193,0000      Cuts: 56      497   51,29%
      0     0      581,8632   151     1193,0000       Cuts: 6      529   51,23%
      0     0      581,9779   151     1193,0000      Cuts: 69      545   51,22%
      0     0      582,1685   151     1193,0000   ZeroHalf: 2      558   51,20%
      0     0      582,9606   151     1193,0000      Cuts: 46      576   51,13%
      0     0      583,2587   151     1193,0000   ZeroHalf: 5      586   51,11%
      0     0      583,6365   151     1193,0000   ZeroHalf: 6      604   51,08%
      0     0      585,0984   151     1193,0000      Cuts: 42      619   50,96%
      0     0      585,8154   151     1193,0000       Cuts: 9      638   50,90%
      0     0      586,0300   151     1193,0000      Cuts: 28      648   50,88%
      0     0      586,6718   151     1193,0000   ZeroHalf: 2      665   50,82%
      0     0      586,6843   151     1193,0000       Cuts: 9      673   50,82%
*     0+    0                         1066,0000      586,6843            44,96%
      0     0      586,6989   151     1066,0000   ZeroHalf: 1      680   35,75%
      0     2      586,6989   180     1066,0000      684,9485      680   35,75%
Elapsed time = 0,30 sec. (123,91 ticks, tree = 0,02 MB, solutions = 3)

Clique cuts applied:  43
Cover cuts applied:  190
Flow cuts applied:  1
Mixed integer rounding cuts applied:  50
Zero-half cuts applied:  15
Lift and project cuts applied:  2
Gomory fractional cuts applied:  11

Root node processing (before b&c):
  Real time             =    0,30 sec. (123,58 ticks)
Parallel b&c, 16 threads:
  Real time             =    0,26 sec. (150,33 ticks)
  Sync time (average)   =    0,11 sec.
  Wait time (average)   =    0,00 sec.
                          ------------
Total (root+branch&cut) =    0,56 sec. (273,91 ticks)
